etc/upTests/tupley27-1-2/0001.eprime
language ESSENCE' 1.0

find pain_tuple1_tuple1: matrix indexed by [int(1)] of int(1, 2)
find pain_tuple1_tuple2_tuple1: matrix indexed by [int(1)] of int(4)
find pain_tuple1_tuple2_tuple2_tuple1: matrix indexed by [int(1)] of int(5)
find pain_tuple1_tuple2_tuple2_tuple2: matrix indexed by [int(1)] of int(6)
such that
    pain_tuple1_tuple1[1] = 2,
    pain_tuple1_tuple2_tuple1[1] = 4,
    pain_tuple1_tuple2_tuple2_tuple1[1] = 5,
    pain_tuple1_tuple2_tuple2_tuple2[1] = 6
