etc/upTests/tupley27-1-2/0001.eprime.solution
language ESSENCE' 1.0
$ minion Nodes: 1
$ minion TotalTime: 0.000561
$ Savile Row TotalTime: 0.234
letting pain_tuple1_tuple2_tuple1 be [4;int(1)]
letting pain_tuple1_tuple1 be [2;int(1)]
letting pain_tuple1_tuple2_tuple2_tuple1 be [5;int(1)]
letting pain_tuple1_tuple2_tuple2_tuple2 be [6;int(1)]
